(set-info :smt-lib-version 2.6)
(set-logic QF_UFNRA)
(set-info :source |
Generated by: Geoff Sutcliffe
Generated on: 2026-03-11
Generator: TPTPWorld
Application: Benchmarking automated theorem provers
Time limit: 120.0

These benchmarks are translations from the TPTP Library (Thousands of
Problems for Theorem Provers), see http://www.cs.miami.edu/~tptp/

The TPTP is maintained by Geoff Sutcliffe, and he contributed this
selection of benchmarks to SMT-LIB.  They were exported from the
v9.2.1 realease of TPTP.
|)
(set-info :category "industrial")
(set-info :status "unknown")
; SZS status Success
(declare-sort $$unsorted 0)
(declare-fun tptp.eps () Real)
(declare-fun tptp.c () Real)
(declare-fun tptp.k () Real)
(declare-fun tptp.x () Real)
(declare-fun tptp.n () Real)
(assert (>= tptp.n 0.0))
(assert (< tptp.n (* (/ 1.0 2.0) (* tptp.k tptp.x))))
(assert (> tptp.c 0.0))
(assert (> tptp.eps 0.0))
(assert (< tptp.eps 1.0))
(assert (not (< (* (+ (* (/ 1.0 3.0) (* (/ 1.0 (+ 3.0 tptp.c)) tptp.eps)) 1.0) tptp.n) (* tptp.k tptp.x))))
(check-sat)
